data/solutions/recovery/wellformed/moderate/binding/wellformed_moderate_instance64/31.sol
Elapsed time: 0.04
Upper bound: 4875.0
Planning weighted value: 128807.0
C[0]=4875.0
C[1]=4871.0
C[2]=4866.0
C[3]=4832.0
C[4]=0.0
y[0]=0
y[1]=1
y[2]=2
y[3]=3
y[4]=3
y[5]=2
y[6]=2
y[7]=2
y[8]=3
y[9]=0
y[10]=0
y[11]=3
y[12]=1
y[13]=1
y[14]=2
y[15]=1
y[16]=2
y[17]=3
y[18]=0
y[19]=3
y[20]=0
y[21]=3
y[22]=2
y[23]=0
y[24]=2
y[25]=0
y[26]=1
y[27]=3
y[28]=3
y[29]=1
y[30]=3
y[31]=1
y[32]=2
y[33]=3
y[34]=2
y[35]=0
y[36]=1
y[37]=3
y[38]=1
y[39]=1
y[40]=0
