data/solutions/recovery/wellformed/moderate/binding/wellformed_moderate_instance64/31.log

Log started (V12.6.3.0) Fri Apr 20 17:49:36 2018

New value for default parallel thread count: 1

Problem '/tmp/tmpNix9Z4.pyomo.lp' read.
Read time = 0.00 sec. (0.08 ticks)

Problem name         : /tmp/tmpNix9Z4.pyomo.lp
Objective sense      : Minimize
Variables            :     212  [Nneg: 1,  Binary: 205,  General Integer: 6]
Objective nonzeros   :       1
Linear constraints   :      94  [Less: 46,  Equal: 48]
  Nonzeros           :    5203
  RHS nonzeros       :      42

Variables            : Min LB: 0.000000         Max UB: 1.000000       
Objective nonzeros   : Min   : 1.000000         Max   : 1.000000       
Linear constraints   :
  Nonzeros           : Min   : 1.000000         Max   : 1963.000       
  RHS nonzeros       : Min   : 1.000000         Max   : 1.000000       
Tried aggregator 2 times.
MIP Presolve eliminated 74 rows and 159 columns.
Aggregator did 4 substitutions.
Reduced MIP has 16 rows, 49 columns, and 100 nonzeros.
Reduced MIP has 48 binaries, 1 generals, 0 SOSs, and 0 indicators.
Presolve time = 0.00 sec. (0.50 ticks)
Found incumbent of value 9935.000000 after 0.00 sec. (0.65 ticks)
Probing time = 0.00 sec. (0.03 ticks)
Cover probing fixed 0 vars, tightened 1 bounds.
Tried aggregator 1 time.
Reduced MIP has 16 rows, 49 columns, and 100 nonzeros.
Reduced MIP has 48 binaries, 1 generals, 0 SOSs, and 0 indicators.
Presolve time = 0.00 sec. (0.06 ticks)
Probing time = 0.00 sec. (0.02 ticks)
Clique table members: 12.
MIP emphasis: balance optimality and feasibility.
MIP search method: dynamic search.
Parallel mode: none, using 1 thread.
Root relaxation solution time = 0.00 sec. (0.05 ticks)

        Nodes                                         Cuts/
   Node  Left     Objective  IInf  Best Integer    Best Bound    ItCnt     Gap

*     0+    0                         9935.0000     4274.0000            56.98%
      0     0     4861.0000     6     9935.0000     4861.0000       10   51.07%
*     0+    0                         5780.0000     4861.0000            15.90%
      0     0     4861.0000     9     5780.0000       Cuts: 2       20   15.90%
*     0+    0                         5583.0000     4861.0000            12.93%
      0     0     4861.0000     5     5583.0000       Cuts: 6       31   12.93%
*     0+    0                         5022.0000     4861.0000             3.21%
*     0+    0                         5010.0000     4861.0000             2.97%
*     0+    0                         4948.0000     4861.0000             1.76%
      0     2     4861.0000     5     4948.0000     4861.0000       31    1.76%
Elapsed time = 0.01 sec. (2.53 ticks, tree = 0.01 MB, solutions = 6)
*    29    27      integral     0     4896.0000     4861.0000       98    0.71%
*   230+   30                         4875.0000     4861.0000             0.29%

Gomory fractional cuts applied:  1

Root node processing (before b&c):
  Real time             =    0.01 sec. (2.54 ticks)
Sequential b&c:
  Real time             =    0.01 sec. (5.54 ticks)
                          ------------
Total (root+branch&cut) =    0.02 sec. (8.08 ticks)

Solution pool: 8 solutions saved.

MIP - Integer optimal solution:  Objective =  4.8750000000e+03
Solution time =    0.02 sec.  Iterations = 670  Nodes = 418
Deterministic time = 8.08 ticks  (338.84 ticks/sec)


Incumbent solution written to file '/tmp/tmpjRwbsV.cplex.sol'.

Log started (V12.6.3.0) Fri Apr 20 17:52:40 2018

New value for default parallel thread count: 1

Problem '/tmp/tmpS3Eei1.pyomo.lp' read.
Read time = 0.00 sec. (0.08 ticks)

Problem name         : /tmp/tmpS3Eei1.pyomo.lp
Objective sense      : Minimize
Variables            :     212  [Nneg: 1,  Binary: 205,  General Integer: 6]
Objective nonzeros   :       1
Linear constraints   :      94  [Less: 46,  Equal: 48]
  Nonzeros           :    5203
  RHS nonzeros       :      42

Variables            : Min LB: 0.000000         Max UB: 1.000000       
Objective nonzeros   : Min   : 1.000000         Max   : 1.000000       
Linear constraints   :
  Nonzeros           : Min   : 1.000000         Max   : 1963.000       
  RHS nonzeros       : Min   : 1.000000         Max   : 1.000000       
Tried aggregator 2 times.
MIP Presolve eliminated 74 rows and 159 columns.
Aggregator did 4 substitutions.
Reduced MIP has 16 rows, 49 columns, and 100 nonzeros.
Reduced MIP has 48 binaries, 1 generals, 0 SOSs, and 0 indicators.
Presolve time = 0.00 sec. (0.50 ticks)
Found incumbent of value 9935.000000 after 0.00 sec. (0.65 ticks)
Probing time = 0.00 sec. (0.03 ticks)
Cover probing fixed 0 vars, tightened 1 bounds.
Tried aggregator 1 time.
Reduced MIP has 16 rows, 49 columns, and 100 nonzeros.
Reduced MIP has 48 binaries, 1 generals, 0 SOSs, and 0 indicators.
Presolve time = 0.00 sec. (0.06 ticks)
Probing time = 0.00 sec. (0.02 ticks)
Clique table members: 12.
MIP emphasis: balance optimality and feasibility.
MIP search method: dynamic search.
Parallel mode: none, using 1 thread.
Root relaxation solution time = 0.00 sec. (0.05 ticks)

        Nodes                                         Cuts/
   Node  Left     Objective  IInf  Best Integer    Best Bound    ItCnt     Gap

*     0+    0                         9935.0000     4274.0000            56.98%
      0     0     4861.0000     6     9935.0000     4861.0000       10   51.07%
*     0+    0                         5780.0000     4861.0000            15.90%
      0     0     4861.0000     9     5780.0000       Cuts: 2       20   15.90%
*     0+    0                         5583.0000     4861.0000            12.93%
      0     0     4861.0000     5     5583.0000       Cuts: 6       31   12.93%
*     0+    0                         5022.0000     4861.0000             3.21%
*     0+    0                         5010.0000     4861.0000             2.97%
*     0+    0                         4948.0000     4861.0000             1.76%
      0     2     4861.0000     5     4948.0000     4861.0000       31    1.76%
Elapsed time = 0.01 sec. (2.53 ticks, tree = 0.01 MB, solutions = 6)
*    29    27      integral     0     4896.0000     4861.0000       98    0.71%
*   230+   30                         4875.0000     4861.0000             0.29%

Gomory fractional cuts applied:  1

Root node processing (before b&c):
  Real time             =    0.01 sec. (2.54 ticks)
Sequential b&c:
  Real time             =    0.01 sec. (5.54 ticks)
                          ------------
Total (root+branch&cut) =    0.03 sec. (8.08 ticks)

Solution pool: 8 solutions saved.

MIP - Integer optimal solution:  Objective =  4.8750000000e+03
Solution time =    0.03 sec.  Iterations = 670  Nodes = 418
Deterministic time = 8.08 ticks  (314.19 ticks/sec)


Incumbent solution written to file '/tmp/tmpWvy0kz.cplex.sol'.
